c Random generated cnf formula, satisfiable: true
p cnf 10 50
5 3 4 0
-7 -10 -4 0
-5 10 8 0
2 -6 7 0
-1 9 -7 0
9 3 -10 0
7 8 6 0
-7 -1 -10 0
-6 7 10 0
-8 5 -6 0
8 -4 7 0
3 5 -7 0
5 -8 -6 0
-8 -7 3 0
9 6 -5 0
-2 6 1 0
-2 -7 10 0
10 7 -3 0
-8 -1 2 0
9 7 -5 0
3 5 -4 0
-8 -3 -9 0
9 10 -7 0
1 -2 6 0
-4 -5 7 0
-7 8 4 0
-9 -6 8 0
5 3 -2 0
2 -6 -3 0
5 -10 -6 0
-6 3 9 0
4 -6 2 0
-10 -8 5 0
5 -6 7 0
-3 6 9 0
5 10 -7 0
-7 9 6 0
-8 6 -7 0
-8 7 9 0
2 4 -9 0
-7 -2 10 0
2 9 -5 0
-8 6 -9 0
-6 -10 -9 0
1 5 -4 0
-1 -9 -5 0
7 9 -3 0
-9 6 -3 0
-9 3 -1 0
-7 -9 10 0
